problems/csplib-prob056/sonet-models/noch/O2/lingeling/model_2_1-s1ring03-solution000001.eprime-solution
language ESSENCE' 1.0

letting network_ExplicitWithFlagsR6_Flags be [1, 2, 1, 0; int(1..4)]
letting network_ExplicitWithFlagsR6_Values_ExplicitVarSizeWithDummy be
        [[1, 2, 4, 7; int(1..4)], [1, 3, 4, 5; int(1..4)], [4, 6, 8, 8; int(1..4)], [1, 1, 1, 1; int(1..4)]; int(1..4)]
