problems/csplib-prob056/sonet-models/noch/O2/lingeling/model_2_1-s1ring03-solution000001.solution
language Essence 1.3

letting network be mset({1, 2, 4, 7}, {1, 3, 4, 5}, {1, 3, 4, 5}, {4, 6})
$ Here is a simple "visualisation" for the value above.
$ 1 2 4 7
$ 1 3 4 5
$ 1 3 4 5
$ 4 6

